p cnf 102 1482
-101 -92 0
-94 -83 0
-91 -82 0
-100 -82 0
-100 -91 0
-84 -73 0
-95 -73 0
-95 -84 0
-81 -72 0
-90 -72 0
-90 -81 0
-99 -72 0
-99 -81 0
-99 -90 0
-74 -63 0
-85 -63 0
-85 -74 0
-96 -63 0
-96 -74 0
-96 -85 0
-71 -62 0
-80 -62 0
-80 -71 0
-89 -62 0
-89 -71 0
-89 -80 0
-98 -62 0
-98 -71 0
-98 -80 0
-98 -89 0
-64 -53 0
-75 -53 0
-75 -64 0
-86 -53 0
-86 -64 0
-86 -75 0
-97 -53 0
-97 -64 0
-97 -75 0
-97 -86 0
-61 -52 0
-70 -52 0
-70 -61 0
-79 -52 0
-79 -61 0
-79 -70 0
-88 -52 0
-88 -61 0
-88 -70 0
-88 -79 0
-97 -52 0
-97 -61 0
-97 -70 0
-97 -79 0
-97 -88 0
-54 -43 0
-65 -43 0
-65 -54 0
-76 -43 0
-76 -54 0
-76 -65 0
-87 -43 0
-87 -54 0
-87 -65 0
-87 -76 0
-98 -43 0
-98 -54 0
-98 -65 0
-98 -76 0
-98 -87 0
-51 -42 0
-60 -42 0
-60 -51 0
-69 -42 0
-69 -51 0
-69 -60 0
-78 -42 0
-78 -51 0
-78 -60 0
-78 -69 0
-87 -42 0
-87 -51 0
-87 -60 0
-87 -69 0
-87 -78 0
-96 -42 0
-96 -51 0
-96 -60 0
-96 -69 0
-96 -78 0
-96 -87 0
-44 -33 0
-55 -33 0
-55 -44 0
-66 -33 0
-66 -44 0
-66 -55 0
-77 -33 0
-77 -44 0
-77 -55 0
-77 -66 0
-88 -33 0
-88 -44 0
-88 -55 0
-88 -66 0
-88 -77 0
-99 -33 0
-99 -44 0
-99 -55 0
-99 -66 0
-99 -77 0
-99 -88 0
-41 -32 0
-50 -32 0
-50 -41 0
-59 -32 0
-59 -41 0
-59 -50 0
-68 -32 0
-68 -41 0
-68 -50 0
-68 -59 0
-77 -32 0
-77 -41 0
-77 -50 0
-77 -59 0
-77 -68 0
-86 -32 0
-86 -41 0
-86 -50 0
-86 -59 0
-86 -68 0
-86 -77 0
-95 -32 0
-95 -41 0
-95 -50 0
-95 -59 0
-95 -68 0
-95 -77 0
-95 -86 0
-34 -23 0
-45 -23 0
-45 -34 0
-56 -23 0
-56 -34 0
-56 -45 0
-67 -23 0
-67 -34 0
-67 -45 0
-67 -56 0
-78 -23 0
-78 -34 0
-78 -45 0
-78 -56 0
-78 -67 0
-89 -23 0
-89 -34 0
-89 -45 0
-89 -56 0
-89 -67 0
-89 -78 0
-100 -23 0
-100 -34 0
-100 -45 0
-100 -56 0
-100 -67 0
-100 -78 0
-100 -89 0
-31 -22 0
-40 -22 0
-40 -31 0
-49 -22 0
-49 -31 0
-49 -40 0
-58 -22 0
-58 -31 0
-58 -40 0
-58 -49 0
-67 -22 0
-67 -31 0
-67 -40 0
-67 -49 0
-67 -58 0
-76 -22 0
-76 -31 0
-76 -40 0
-76 -49 0
-76 -58 0
-76 -67 0
-85 -22 0
-85 -31 0
-85 -40 0
-85 -49 0
-85 -58 0
-85 -67 0
-85 -76 0
-94 -22 0
-94 -31 0
-94 -40 0
-94 -49 0
-94 -58 0
-94 -67 0
-94 -76 0
-94 -85 0
-24 -13 0
-35 -13 0
-35 -24 0
-46 -13 0
-46 -24 0
-46 -35 0
-57 -13 0
-57 -24 0
-57 -35 0
-57 -46 0
-68 -13 0
-68 -24 0
-68 -35 0
-68 -46 0
-68 -57 0
-79 -13 0
-79 -24 0
-79 -35 0
-79 -46 0
-79 -57 0
-79 -68 0
-90 -13 0
-90 -24 0
-90 -35 0
-90 -46 0
-90 -57 0
-90 -68 0
-90 -79 0
-101 -13 0
-101 -24 0
-101 -35 0
-101 -46 0
-101 -57 0
-101 -68 0
-101 -79 0
-101 -90 0
-21 -12 0
-30 -12 0
-30 -21 0
-39 -12 0
-39 -21 0
-39 -30 0
-48 -12 0
-48 -21 0
-48 -30 0
-48 -39 0
-57 -12 0
-57 -21 0
-57 -30 0
-57 -39 0
-57 -48 0
-66 -12 0
-66 -21 0
-66 -30 0
-66 -39 0
-66 -48 0
-66 -57 0
-75 -12 0
-75 -21 0
-75 -30 0
-75 -39 0
-75 -48 0
-75 -57 0
-75 -66 0
-84 -12 0
-84 -21 0
-84 -30 0
-84 -39 0
-84 -48 0
-84 -57 0
-84 -66 0
-84 -75 0
-93 -12 0
-93 -21 0
-93 -30 0
-93 -39 0
-93 -48 0
-93 -57 0
-93 -66 0
-93 -75 0
-93 -84 0
-20 -11 0
-29 -11 0
-29 -20 0
-38 -11 0
-38 -20 0
-38 -29 0
-47 -11 0
-47 -20 0
-47 -29 0
-47 -38 0
-56 -11 0
-56 -20 0
-56 -29 0
-56 -38 0
-56 -47 0
-65 -11 0
-65 -20 0
-65 -29 0
-65 -38 0
-65 -47 0
-65 -56 0
-74 -11 0
-74 -20 0
-74 -29 0
-74 -38 0
-74 -47 0
-74 -56 0
-74 -65 0
-83 -11 0
-83 -20 0
-83 -29 0
-83 -38 0
-83 -47 0
-83 -56 0
-83 -65 0
-83 -74 0
-22 -11 0
-19 -10 0
-28 -10 0
-28 -19 0
-37 -10 0
-37 -19 0
-37 -28 0
-46 -10 0
-46 -19 0
-46 -28 0
-46 -37 0
-55 -10 0
-55 -19 0
-55 -28 0
-55 -37 0
-55 -46 0
-64 -10 0
-64 -19 0
-64 -28 0
-64 -37 0
-64 -46 0
-64 -55 0
-73 -10 0
-73 -19 0
-73 -28 0
-73 -37 0
-73 -46 0
-73 -55 0
-73 -64 0
-21 -10 0
-32 -10 0
-32 -21 0
-18 -9 0
-27 -9 0
-27 -18 0
-36 -9 0
-36 -18 0
-36 -27 0
-45 -9 0
-45 -18 0
-45 -27 0
-45 -36 0
-54 -9 0
-54 -18 0
-54 -27 0
-54 -36 0
-54 -45 0
-63 -9 0
-63 -18 0
-63 -27 0
-63 -36 0
-63 -45 0
-63 -54 0
-20 -9 0
-31 -9 0
-31 -20 0
-42 -9 0
-42 -20 0
-42 -31 0
-17 -8 0
-26 -8 0
-26 -17 0
-35 -8 0
-35 -17 0
-35 -26 0
-44 -8 0
-44 -17 0
-44 -26 0
-44 -35 0
-53 -8 0
-53 -17 0
-53 -26 0
-53 -35 0
-53 -44 0
-19 -8 0
-30 -8 0
-30 -19 0
-41 -8 0
-41 -19 0
-41 -30 0
-52 -8 0
-52 -19 0
-52 -30 0
-52 -41 0
-16 -7 0
-25 -7 0
-25 -16 0
-34 -7 0
-34 -16 0
-34 -25 0
-43 -7 0
-43 -16 0
-43 -25 0
-43 -34 0
-18 -7 0
-29 -7 0
-29 -18 0
-40 -7 0
-40 -18 0
-40 -29 0
-51 -7 0
-51 -18 0
-51 -29 0
-51 -40 0
-62 -7 0
-62 -18 0
-62 -29 0
-62 -40 0
-62 -51 0
-15 -6 0
-24 -6 0
-24 -15 0
-33 -6 0
-33 -15 0
-33 -24 0
-17 -6 0
-28 -6 0
-28 -17 0
-39 -6 0
-39 -17 0
-39 -28 0
-50 -6 0
-50 -17 0
-50 -28 0
-50 -39 0
-61 -6 0
-61 -17 0
-61 -28 0
-61 -39 0
-61 -50 0
-72 -6 0
-72 -17 0
-72 -28 0
-72 -39 0
-72 -50 0
-72 -61 0
-14 -5 0
-23 -5 0
-23 -14 0
-16 -5 0
-27 -5 0
-27 -16 0
-38 -5 0
-38 -16 0
-38 -27 0
-49 -5 0
-49 -16 0
-49 -27 0
-49 -38 0
-60 -5 0
-60 -16 0
-60 -27 0
-60 -38 0
-60 -49 0
-71 -5 0
-71 -16 0
-71 -27 0
-71 -38 0
-71 -49 0
-71 -60 0
-82 -5 0
-82 -16 0
-82 -27 0
-82 -38 0
-82 -49 0
-82 -60 0
-82 -71 0
-13 -4 0
-15 -4 0
-26 -4 0
-26 -15 0
-37 -4 0
-37 -15 0
-37 -26 0
-48 -4 0
-48 -15 0
-48 -26 0
-48 -37 0
-59 -4 0
-59 -15 0
-59 -26 0
-59 -37 0
-59 -48 0
-70 -4 0
-70 -15 0
-70 -26 0
-70 -37 0
-70 -48 0
-70 -59 0
-81 -4 0
-81 -15 0
-81 -26 0
-81 -37 0
-81 -48 0
-81 -59 0
-81 -70 0
-92 -4 0
-92 -15 0
-92 -26 0
-92 -37 0
-92 -48 0
-92 -59 0
-92 -70 0
-92 -81 0
-14 -3 0
-25 -3 0
-25 -14 0
-36 -3 0
-36 -14 0
-36 -25 0
-47 -3 0
-47 -14 0
-47 -25 0
-47 -36 0
-58 -3 0
-58 -14 0
-58 -25 0
-58 -36 0
-58 -47 0
-69 -3 0
-69 -14 0
-69 -25 0
-69 -36 0
-69 -47 0
-69 -58 0
-80 -3 0
-80 -14 0
-80 -25 0
-80 -36 0
-80 -47 0
-80 -58 0
-80 -69 0
-91 -3 0
-91 -14 0
-91 -25 0
-91 -36 0
-91 -47 0
-91 -58 0
-91 -69 0
-91 -80 0
-102 -3 0
-102 -14 0
-102 -25 0
-102 -36 0
-102 -47 0
-102 -58 0
-102 -69 0
-102 -80 0
-102 -91 0
102 92 82 72 62 52 42 32 22 12 0
-22 -12 0
-32 -12 0
-32 -22 0
-42 -12 0
-42 -22 0
-42 -32 0
-52 -12 0
-52 -22 0
-52 -32 0
-52 -42 0
-62 -12 0
-62 -22 0
-62 -32 0
-62 -42 0
-62 -52 0
-72 -12 0
-72 -22 0
-72 -32 0
-72 -42 0
-72 -52 0
-72 -62 0
-82 -12 0
-82 -22 0
-82 -32 0
-82 -42 0
-82 -52 0
-82 -62 0
-82 -72 0
-92 -12 0
-92 -22 0
-92 -32 0
-92 -42 0
-92 -52 0
-92 -62 0
-92 -72 0
-92 -82 0
-102 -12 0
-102 -22 0
-102 -32 0
-102 -42 0
-102 -52 0
-102 -62 0
-102 -72 0
-102 -82 0
-102 -92 0
101 91 81 71 61 51 41 31 21 11 0
-21 -11 0
-31 -11 0
-31 -21 0
-41 -11 0
-41 -21 0
-41 -31 0
-51 -11 0
-51 -21 0
-51 -31 0
-51 -41 0
-61 -11 0
-61 -21 0
-61 -31 0
-61 -41 0
-61 -51 0
-71 -11 0
-71 -21 0
-71 -31 0
-71 -41 0
-71 -51 0
-71 -61 0
-81 -11 0
-81 -21 0
-81 -31 0
-81 -41 0
-81 -51 0
-81 -61 0
-81 -71 0
-91 -11 0
-91 -21 0
-91 -31 0
-91 -41 0
-91 -51 0
-91 -61 0
-91 -71 0
-91 -81 0
-101 -11 0
-101 -21 0
-101 -31 0
-101 -41 0
-101 -51 0
-101 -61 0
-101 -71 0
-101 -81 0
-101 -91 0
100 90 80 70 60 50 40 30 20 10 0
-20 -10 0
-30 -10 0
-30 -20 0
-40 -10 0
-40 -20 0
-40 -30 0
-50 -10 0
-50 -20 0
-50 -30 0
-50 -40 0
-60 -10 0
-60 -20 0
-60 -30 0
-60 -40 0
-60 -50 0
-70 -10 0
-70 -20 0
-70 -30 0
-70 -40 0
-70 -50 0
-70 -60 0
-80 -10 0
-80 -20 0
-80 -30 0
-80 -40 0
-80 -50 0
-80 -60 0
-80 -70 0
-90 -10 0
-90 -20 0
-90 -30 0
-90 -40 0
-90 -50 0
-90 -60 0
-90 -70 0
-90 -80 0
-100 -10 0
-100 -20 0
-100 -30 0
-100 -40 0
-100 -50 0
-100 -60 0
-100 -70 0
-100 -80 0
-100 -90 0
99 89 79 69 59 49 39 29 19 9 0
-19 -9 0
-29 -9 0
-29 -19 0
-39 -9 0
-39 -19 0
-39 -29 0
-49 -9 0
-49 -19 0
-49 -29 0
-49 -39 0
-59 -9 0
-59 -19 0
-59 -29 0
-59 -39 0
-59 -49 0
-69 -9 0
-69 -19 0
-69 -29 0
-69 -39 0
-69 -49 0
-69 -59 0
-79 -9 0
-79 -19 0
-79 -29 0
-79 -39 0
-79 -49 0
-79 -59 0
-79 -69 0
-89 -9 0
-89 -19 0
-89 -29 0
-89 -39 0
-89 -49 0
-89 -59 0
-89 -69 0
-89 -79 0
-99 -9 0
-99 -19 0
-99 -29 0
-99 -39 0
-99 -49 0
-99 -59 0
-99 -69 0
-99 -79 0
-99 -89 0
98 88 78 68 58 48 38 28 18 8 0
-18 -8 0
-28 -8 0
-28 -18 0
-38 -8 0
-38 -18 0
-38 -28 0
-48 -8 0
-48 -18 0
-48 -28 0
-48 -38 0
-58 -8 0
-58 -18 0
-58 -28 0
-58 -38 0
-58 -48 0
-68 -8 0
-68 -18 0
-68 -28 0
-68 -38 0
-68 -48 0
-68 -58 0
-78 -8 0
-78 -18 0
-78 -28 0
-78 -38 0
-78 -48 0
-78 -58 0
-78 -68 0
-88 -8 0
-88 -18 0
-88 -28 0
-88 -38 0
-88 -48 0
-88 -58 0
-88 -68 0
-88 -78 0
-98 -8 0
-98 -18 0
-98 -28 0
-98 -38 0
-98 -48 0
-98 -58 0
-98 -68 0
-98 -78 0
-98 -88 0
97 87 77 67 57 47 37 27 17 7 0
-17 -7 0
-27 -7 0
-27 -17 0
-37 -7 0
-37 -17 0
-37 -27 0
-47 -7 0
-47 -17 0
-47 -27 0
-47 -37 0
-57 -7 0
-57 -17 0
-57 -27 0
-57 -37 0
-57 -47 0
-67 -7 0
-67 -17 0
-67 -27 0
-67 -37 0
-67 -47 0
-67 -57 0
-77 -7 0
-77 -17 0
-77 -27 0
-77 -37 0
-77 -47 0
-77 -57 0
-77 -67 0
-87 -7 0
-87 -17 0
-87 -27 0
-87 -37 0
-87 -47 0
-87 -57 0
-87 -67 0
-87 -77 0
-97 -7 0
-97 -17 0
-97 -27 0
-97 -37 0
-97 -47 0
-97 -57 0
-97 -67 0
-97 -77 0
-97 -87 0
96 86 76 66 56 46 36 26 16 6 0
-16 -6 0
-26 -6 0
-26 -16 0
-36 -6 0
-36 -16 0
-36 -26 0
-46 -6 0
-46 -16 0
-46 -26 0
-46 -36 0
-56 -6 0
-56 -16 0
-56 -26 0
-56 -36 0
-56 -46 0
-66 -6 0
-66 -16 0
-66 -26 0
-66 -36 0
-66 -46 0
-66 -56 0
-76 -6 0
-76 -16 0
-76 -26 0
-76 -36 0
-76 -46 0
-76 -56 0
-76 -66 0
-86 -6 0
-86 -16 0
-86 -26 0
-86 -36 0
-86 -46 0
-86 -56 0
-86 -66 0
-86 -76 0
-96 -6 0
-96 -16 0
-96 -26 0
-96 -36 0
-96 -46 0
-96 -56 0
-96 -66 0
-96 -76 0
-96 -86 0
95 85 75 65 55 45 35 25 15 5 0
-15 -5 0
-25 -5 0
-25 -15 0
-35 -5 0
-35 -15 0
-35 -25 0
-45 -5 0
-45 -15 0
-45 -25 0
-45 -35 0
-55 -5 0
-55 -15 0
-55 -25 0
-55 -35 0
-55 -45 0
-65 -5 0
-65 -15 0
-65 -25 0
-65 -35 0
-65 -45 0
-65 -55 0
-75 -5 0
-75 -15 0
-75 -25 0
-75 -35 0
-75 -45 0
-75 -55 0
-75 -65 0
-85 -5 0
-85 -15 0
-85 -25 0
-85 -35 0
-85 -45 0
-85 -55 0
-85 -65 0
-85 -75 0
-95 -5 0
-95 -15 0
-95 -25 0
-95 -35 0
-95 -45 0
-95 -55 0
-95 -65 0
-95 -75 0
-95 -85 0
94 84 74 64 54 44 34 24 14 4 0
-14 -4 0
-24 -4 0
-24 -14 0
-34 -4 0
-34 -14 0
-34 -24 0
-44 -4 0
-44 -14 0
-44 -24 0
-44 -34 0
-54 -4 0
-54 -14 0
-54 -24 0
-54 -34 0
-54 -44 0
-64 -4 0
-64 -14 0
-64 -24 0
-64 -34 0
-64 -44 0
-64 -54 0
-74 -4 0
-74 -14 0
-74 -24 0
-74 -34 0
-74 -44 0
-74 -54 0
-74 -64 0
-84 -4 0
-84 -14 0
-84 -24 0
-84 -34 0
-84 -44 0
-84 -54 0
-84 -64 0
-84 -74 0
-94 -4 0
-94 -14 0
-94 -24 0
-94 -34 0
-94 -44 0
-94 -54 0
-94 -64 0
-94 -74 0
-94 -84 0
93 83 73 63 53 43 33 23 13 3 0
-13 -3 0
-23 -3 0
-23 -13 0
-33 -3 0
-33 -13 0
-33 -23 0
-43 -3 0
-43 -13 0
-43 -23 0
-43 -33 0
-53 -3 0
-53 -13 0
-53 -23 0
-53 -33 0
-53 -43 0
-63 -3 0
-63 -13 0
-63 -23 0
-63 -33 0
-63 -43 0
-63 -53 0
-73 -3 0
-73 -13 0
-73 -23 0
-73 -33 0
-73 -43 0
-73 -53 0
-73 -63 0
-83 -3 0
-83 -13 0
-83 -23 0
-83 -33 0
-83 -43 0
-83 -53 0
-83 -63 0
-83 -73 0
-93 -3 0
-93 -13 0
-93 -23 0
-93 -33 0
-93 -43 0
-93 -53 0
-93 -63 0
-93 -73 0
-93 -83 0
-101 -102 0
-100 -102 0
-100 -101 0
-99 -102 0
-99 -101 0
-99 -100 0
-98 -102 0
-98 -101 0
-98 -100 0
-98 -99 0
-97 -102 0
-97 -101 0
-97 -100 0
-97 -99 0
-97 -98 0
-96 -102 0
-96 -101 0
-96 -100 0
-96 -99 0
-96 -98 0
-96 -97 0
-95 -102 0
-95 -101 0
-95 -100 0
-95 -99 0
-95 -98 0
-95 -97 0
-95 -96 0
-94 -102 0
-94 -101 0
-94 -100 0
-94 -99 0
-94 -98 0
-94 -97 0
-94 -96 0
-94 -95 0
-93 -102 0
-93 -101 0
-93 -100 0
-93 -99 0
-93 -98 0
-93 -97 0
-93 -96 0
-93 -95 0
-93 -94 0
-91 -92 0
-90 -92 0
-90 -91 0
-89 -92 0
-89 -91 0
-89 -90 0
-88 -92 0
-88 -91 0
-88 -90 0
-88 -89 0
-87 -92 0
-87 -91 0
-87 -90 0
-87 -89 0
-87 -88 0
-86 -92 0
-86 -91 0
-86 -90 0
-86 -89 0
-86 -88 0
-86 -87 0
-85 -92 0
-85 -91 0
-85 -90 0
-85 -89 0
-85 -88 0
-85 -87 0
-85 -86 0
-84 -92 0
-84 -91 0
-84 -90 0
-84 -89 0
-84 -88 0
-84 -87 0
-84 -86 0
-84 -85 0
-83 -92 0
-83 -91 0
-83 -90 0
-83 -89 0
-83 -88 0
-83 -87 0
-83 -86 0
-83 -85 0
-83 -84 0
-81 -82 0
-80 -82 0
-80 -81 0
-79 -82 0
-79 -81 0
-79 -80 0
-78 -82 0
-78 -81 0
-78 -80 0
-78 -79 0
-77 -82 0
-77 -81 0
-77 -80 0
-77 -79 0
-77 -78 0
-76 -82 0
-76 -81 0
-76 -80 0
-76 -79 0
-76 -78 0
-76 -77 0
-75 -82 0
-75 -81 0
-75 -80 0
-75 -79 0
-75 -78 0
-75 -77 0
-75 -76 0
-74 -82 0
-74 -81 0
-74 -80 0
-74 -79 0
-74 -78 0
-74 -77 0
-74 -76 0
-74 -75 0
-73 -82 0
-73 -81 0
-73 -80 0
-73 -79 0
-73 -78 0
-73 -77 0
-73 -76 0
-73 -75 0
-73 -74 0
-71 -72 0
-70 -72 0
-70 -71 0
-69 -72 0
-69 -71 0
-69 -70 0
-68 -72 0
-68 -71 0
-68 -70 0
-68 -69 0
-67 -72 0
-67 -71 0
-67 -70 0
-67 -69 0
-67 -68 0
-66 -72 0
-66 -71 0
-66 -70 0
-66 -69 0
-66 -68 0
-66 -67 0
-65 -72 0
-65 -71 0
-65 -70 0
-65 -69 0
-65 -68 0
-65 -67 0
-65 -66 0
-64 -72 0
-64 -71 0
-64 -70 0
-64 -69 0
-64 -68 0
-64 -67 0
-64 -66 0
-64 -65 0
-63 -72 0
-63 -71 0
-63 -70 0
-63 -69 0
-63 -68 0
-63 -67 0
-63 -66 0
-63 -65 0
-63 -64 0
-61 -62 0
-60 -62 0
-60 -61 0
-59 -62 0
-59 -61 0
-59 -60 0
-58 -62 0
-58 -61 0
-58 -60 0
-58 -59 0
-57 -62 0
-57 -61 0
-57 -60 0
-57 -59 0
-57 -58 0
-56 -62 0
-56 -61 0
-56 -60 0
-56 -59 0
-56 -58 0
-56 -57 0
-55 -62 0
-55 -61 0
-55 -60 0
-55 -59 0
-55 -58 0
-55 -57 0
-55 -56 0
-54 -62 0
-54 -61 0
-54 -60 0
-54 -59 0
-54 -58 0
-54 -57 0
-54 -56 0
-54 -55 0
-53 -62 0
-53 -61 0
-53 -60 0
-53 -59 0
-53 -58 0
-53 -57 0
-53 -56 0
-53 -55 0
-53 -54 0
-51 -52 0
-50 -52 0
-50 -51 0
-49 -52 0
-49 -51 0
-49 -50 0
-48 -52 0
-48 -51 0
-48 -50 0
-48 -49 0
-47 -52 0
-47 -51 0
-47 -50 0
-47 -49 0
-47 -48 0
-46 -52 0
-46 -51 0
-46 -50 0
-46 -49 0
-46 -48 0
-46 -47 0
-45 -52 0
-45 -51 0
-45 -50 0
-45 -49 0
-45 -48 0
-45 -47 0
-45 -46 0
-44 -52 0
-44 -51 0
-44 -50 0
-44 -49 0
-44 -48 0
-44 -47 0
-44 -46 0
-44 -45 0
-43 -52 0
-43 -51 0
-43 -50 0
-43 -49 0
-43 -48 0
-43 -47 0
-43 -46 0
-43 -45 0
-43 -44 0
-41 -42 0
-40 -42 0
-40 -41 0
-39 -42 0
-39 -41 0
-39 -40 0
-38 -42 0
-38 -41 0
-38 -40 0
-38 -39 0
-37 -42 0
-37 -41 0
-37 -40 0
-37 -39 0
-37 -38 0
-36 -42 0
-36 -41 0
-36 -40 0
-36 -39 0
-36 -38 0
-36 -37 0
-35 -42 0
-35 -41 0
-35 -40 0
-35 -39 0
-35 -38 0
-35 -37 0
-35 -36 0
-34 -42 0
-34 -41 0
-34 -40 0
-34 -39 0
-34 -38 0
-34 -37 0
-34 -36 0
-34 -35 0
-33 -42 0
-33 -41 0
-33 -40 0
-33 -39 0
-33 -38 0
-33 -37 0
-33 -36 0
-33 -35 0
-33 -34 0
-31 -32 0
-30 -32 0
-30 -31 0
-29 -32 0
-29 -31 0
-29 -30 0
-28 -32 0
-28 -31 0
-28 -30 0
-28 -29 0
-27 -32 0
-27 -31 0
-27 -30 0
-27 -29 0
-27 -28 0
-26 -32 0
-26 -31 0
-26 -30 0
-26 -29 0
-26 -28 0
-26 -27 0
-25 -32 0
-25 -31 0
-25 -30 0
-25 -29 0
-25 -28 0
-25 -27 0
-25 -26 0
-24 -32 0
-24 -31 0
-24 -30 0
-24 -29 0
-24 -28 0
-24 -27 0
-24 -26 0
-24 -25 0
-23 -32 0
-23 -31 0
-23 -30 0
-23 -29 0
-23 -28 0
-23 -27 0
-23 -26 0
-23 -25 0
-23 -24 0
-21 -22 0
-20 -22 0
-20 -21 0
-19 -22 0
-19 -21 0
-19 -20 0
-18 -22 0
-18 -21 0
-18 -20 0
-18 -19 0
-17 -22 0
-17 -21 0
-17 -20 0
-17 -19 0
-17 -18 0
-16 -22 0
-16 -21 0
-16 -20 0
-16 -19 0
-16 -18 0
-16 -17 0
-15 -22 0
-15 -21 0
-15 -20 0
-15 -19 0
-15 -18 0
-15 -17 0
-15 -16 0
-14 -22 0
-14 -21 0
-14 -20 0
-14 -19 0
-14 -18 0
-14 -17 0
-14 -16 0
-14 -15 0
-13 -22 0
-13 -21 0
-13 -20 0
-13 -19 0
-13 -18 0
-13 -17 0
-13 -16 0
-13 -15 0
-13 -14 0
-11 -12 0
-10 -12 0
-10 -11 0
-9 -12 0
-9 -11 0
-9 -10 0
-8 -12 0
-8 -11 0
-8 -10 0
-8 -9 0
-7 -12 0
-7 -11 0
-7 -10 0
-7 -9 0
-7 -8 0
-6 -12 0
-6 -11 0
-6 -10 0
-6 -9 0
-6 -8 0
-6 -7 0
-5 -12 0
-5 -11 0
-5 -10 0
-5 -9 0
-5 -8 0
-5 -7 0
-5 -6 0
-4 -12 0
-4 -11 0
-4 -10 0
-4 -9 0
-4 -8 0
-4 -7 0
-4 -6 0
-4 -5 0
-3 -12 0
-3 -11 0
-3 -10 0
-3 -9 0
-3 -8 0
-3 -7 0
-3 -6 0
-3 -5 0
-3 -4 0
1 0
-2 0
